solutions/best/rand/rand_075.sol
12
0
1
2
3
13
4
5
6
13
8
10
11
12
9
5
